W=5;
H=6;

MAX_TIME=12;
MAX_TRACKS=14;

TARGET=(6,5);

TRAINS=[(2,1,RIGHT),(2,5,LEFT),(6,1,RIGHT)];
DECOYS=[];

INIT_POS=[
(2,1,STRAIGHT_RL),
(2,5,STRAIGHT_RL),
(6,1,STRAIGHT_RL),
(6,5,STRAIGHT_RL),
];
TUNNEL_PAIRS=[];

GATES=[];
ACTIVATIONS=[];

DSWITCHES=[];

STATIONS=[];
